1682.36
0 89 94 97 87 2 91 16 5 8 63 81 34 80 0 
0 6 60 84 61 85 86 82 52 1 76 77 3 21 0 
0 69 70 90 64 66 71 65 79 72 73 75 57 37 58 0 
0 53 40 54 55 67 23 29 9 31 46 45 59 0 
0 98 100 42 43 48 19 49 36 33 78 35 0 
0 27 28 26 56 39 25 24 22 17 7 88 62 30 0 
0 13 18 83 47 11 10 32 20 51 15 14 38 0 
0 95 92 99 96 93 44 41 74 4 12 68 50 0 
